p cnf 50 28
-1 12 27 28 29 36 -40 0 
-2 37 -40 0 
-3 38 -40 0 
-3 39 -40 0 
-4 -5 8 40 0 
-6 -7 40 0 
-8 5 -9 41 -40 0 
-10 12 27 28 29 36 -40 0 
-11 12 27 28 29 42 -40 0 
-12 27 28 29 43 -40 0 
-13 44 -40 0 
-14 45 -40 0 
-15 16 17 46 -40 0 
-15 16 17 47 -40 0 
-16 15 17 44 -40 0 
-17 15 16 48 -40 0 
-18 40 0 
-19 40 0 
-20 47 -40 0 
-21 49 -40 0 
-20 46 -40 0 
-22 -23 49 -40 0 
-6 45 -40 0 
-6 -24 -25 47 -40 0 
-33 31 36 -40 0 
-34 -32 -18 50 -40 0 
-35 47 -40 0 
-35 46 -40 0 
